p edges 300 840
e 1 33
e 1 203
e 1 247
e 1 277
e 2 20
e 2 42
e 2 141
e 2 202
e 3 57
e 3 62
e 3 72
e 3 85
e 3 94
e 3 117
e 3 237
e 3 298
e 4 38
e 4 42
e 4 80
e 4 89
e 4 98
e 4 126
e 4 220
e 4 243
e 4 299
e 5 25
e 5 46
e 5 65
e 5 88
e 5 92
e 5 160
e 6 97
e 6 141
e 6 180
e 6 232
e 6 242
e 6 290
e 7 27
e 7 108
e 7 141
e 7 146
e 7 259
e 7 269
e 7 289
e 7 292
e 8 53
e 8 267
e 8 275
e 8 278
e 8 279
e 9 36
e 9 56
e 9 130
e 9 188
e 9 203
e 10 33
e 10 156
e 11 70
e 11 135
e 11 213
e 11 237
e 11 278
e 12 149
e 12 199
e 12 209
e 13 22
e 13 66
e 13 179
e 13 193
e 13 230
e 13 235
e 13 278
e 13 300
e 14 98
e 14 212
e 14 221
e 14 231
e 15 51
e 15 229
e 15 251
e 15 270
e 16 49
e 16 76
e 16 223
e 16 227
e 16 231
e 16 256
e 16 286
e 17 48
e 17 100
e 17 228
e 18 25
e 18 53
e 18 91
e 18 106
e 18 238
e 18 258
e 19 30
e 19 34
e 19 75
e 19 113
e 19 268
e 19 270
e 20 85
e 20 112
e 20 237
e 20 250
e 20 292
e 21 57
e 21 100
e 21 109
e 21 144
e 21 149
e 21 151
e 21 215
e 21 224
e 21 236
e 21 287
e 22 54
e 22 108
e 22 208
e 22 212
e 22 237
e 23 105
e 23 220
e 23 257
e 24 89
e 24 122
e 24 169
e 24 175
e 24 178
e 24 205
e 24 212
e 24 247
e 25 104
e 25 159
e 25 164
e 25 212
e 25 273
e 26 92
e 26 171
e 26 278
e 26 283
e 27 58
e 27 123
e 27 130
e 27 175
e 27 236
e 27 241
e 27 262
e 28 55
e 28 95
e 28 98
e 28 123
e 29 54
e 29 60
e 29 92
e 29 99
e 29 243
e 29 269
e 30 44
e 30 75
e 30 105
e 30 219
e 30 226
e 30 235
e 30 257
e 31 93
e 31 114
e 31 122
e 31 184
e 31 196
e 31 271
e 32 93
e 32 105
e 32 151
e 32 164
e 32 216
e 33 35
e 33 104
e 33 174
e 33 205
e 33 256
e 33 258
e 34 47
e 34 155
e 34 246
e 35 170
e 35 259
e 35 295
e 36 248
e 36 285
e 37 41
e 37 79
e 37 93
e 37 167
e 37 182
e 37 261
e 38 49
e 38 255
e 39 63
e 39 74
e 39 139
e 39 246
e 39 251
e 41 68
e 41 91
e 41 106
e 41 111
e 41 131
e 41 191
e 41 229
e 41 272
e 41 277
e 41 283
e 42 113
e 42 149
e 42 170
e 42 246
e 42 250
e 43 92
e 43 94
e 43 101
e 43 173
e 43 230
e 43 256
e 43 270
e 43 274
e 43 293
e 45 69
e 45 77
e 45 170
e 45 188
e 45 228
e 45 233
e 45 246
e 46 52
e 46 83
e 46 124
e 46 210
e 46 283
e 47 58
e 47 127
e 47 144
e 47 151
e 47 164
e 47 278
e 48 57
e 48 59
e 48 78
e 48 124
e 48 129
e 48 300
e 49 56
e 49 172
e 49 180
e 49 199
e 49 212
e 49 220
e 50 93
e 50 155
e 50 191
e 50 192
e 51 56
e 51 207
e 52 74
e 52 97
e 52 133
e 52 136
e 52 152
e 52 170
e 52 265
e 53 129
e 53 244
e 53 272
e 53 284
e 53 289
e 54 113
e 54 172
e 54 246
e 54 255
e 55 61
e 55 82
e 55 117
e 55 187
e 55 194
e 55 212
e 56 154
e 56 277
e 57 74
e 57 132
e 57 147
e 57 190
e 57 198
e 57 298
e 58 61
e 58 102
e 58 149
e 58 199
e 58 290
e 59 149
e 59 167
e 59 215
e 59 223
e 59 265
e 60 92
e 60 96
e 60 109
e 60 133
e 60 160
e 60 171
e 60 195
e 60 262
e 61 123
e 61 259
e 61 274
e 61 281
e 62 85
e 62 146
e 62 181
e 62 254
e 63 205
e 64 87
e 64 138
e 64 224
e 64 245
e 65 161
e 66 106
e 66 261
e 66 273
e 67 108
e 67 159
e 67 161
e 67 217
e 67 224
e 67 296
e 68 99
e 68 129
e 68 198
e 68 295
e 69 115
e 69 122
e 69 239
e 69 244
e 69 283
e 69 296
e 70 107
e 70 123
e 70 171
e 70 201
e 70 250
e 71 76
e 71 131
e 71 177
e 71 225
e 71 230
e 71 281
e 71 296
e 72 239
e 72 247
e 73 121
e 73 129
e 73 152
e 73 214
e 73 259
e 74 93
e 74 125
e 74 160
e 74 288
e 74 292
e 75 122
e 75 236
e 75 272
e 76 188
e 76 264
e 76 271
e 77 243
e 77 248
e 77 276
e 78 279
e 78 289
e 80 118
e 80 181
e 80 297
e 80 298
e 81 145
e 81 155
e 81 185
e 81 210
e 81 224
e 81 243
e 81 255
e 82 89
e 82 116
e 82 138
e 82 192
e 82 237
e 84 92
e 84 124
e 84 187
e 85 153
e 85 178
e 85 246
e 86 107
e 86 114
e 86 175
e 86 184
e 86 196
e 86 238
e 86 249
e 86 250
e 86 289
e 86 297
e 87 92
e 87 135
e 87 159
e 87 205
e 87 221
e 87 267
e 88 110
e 88 141
e 88 210
e 88 234
e 89 133
e 89 146
e 89 225
e 90 104
e 90 136
e 90 155
e 90 218
e 90 220
e 90 278
e 90 300
e 91 132
e 91 291
e 91 297
e 92 195
e 92 213
e 92 229
e 93 105
e 93 267
e 94 105
e 94 116
e 94 175
e 94 215
e 95 118
e 95 228
e 95 263
e 95 297
e 96 97
e 96 234
e 97 177
e 97 221
e 97 223
e 98 118
e 98 282
e 99 167
e 99 189
e 99 246
e 99 248
e 100 125
e 100 161
e 100 181
e 101 103
e 101 137
e 101 143
e 102 107
e 102 142
e 102 230
e 102 241
e 102 284
e 102 296
e 102 297
e 103 112
e 103 154
e 103 266
e 104 112
e 105 243
e 105 285
e 106 174
e 106 176
e 106 216
e 106 244
e 106 272
e 107 122
e 107 137
e 107 164
e 107 229
e 108 234
e 109 157
e 109 169
e 109 203
e 110 137
e 110 140
e 110 158
e 110 191
e 110 229
e 110 257
e 110 285
e 111 134
e 111 191
e 111 223
e 111 273
e 111 278
e 112 177
e 112 217
e 112 238
e 113 172
e 113 177
e 113 186
e 113 250
e 114 121
e 114 131
e 114 154
e 114 186
e 114 269
e 114 271
e 114 272
e 115 148
e 115 160
e 115 187
e 115 240
e 115 252
e 116 118
e 116 241
e 117 154
e 117 209
e 117 262
e 117 280
e 118 263
e 119 204
e 119 220
e 119 270
e 120 192
e 120 208
e 121 216
e 121 221
e 121 222
e 121 246
e 122 141
e 122 178
e 122 234
e 122 280
e 123 130
e 123 133
e 123 199
e 123 267
e 123 284
e 124 191
e 124 193
e 124 240
e 125 165
e 125 202
e 126 134
e 126 177
e 126 193
e 127 135
e 128 236
e 129 140
e 129 216
e 129 285
e 130 210
e 130 235
e 131 184
e 131 219
e 131 235
e 131 261
e 131 265
e 132 161
e 133 177
e 133 236
e 133 259
e 134 157
e 134 236
e 134 269
e 135 162
e 135 276
e 135 286
e 135 297
e 136 231
e 136 234
e 136 287
e 137 184
e 137 226
e 137 230
e 138 162
e 138 166
e 138 205
e 138 272
e 138 291
e 139 144
e 139 152
e 139 189
e 139 218
e 139 235
e 139 259
e 140 159
e 140 249
e 140 277
e 141 163
e 141 189
e 141 283
e 142 147
e 142 217
e 143 177
e 143 234
e 144 173
e 144 249
e 145 216
e 145 278
e 145 287
e 146 151
e 146 167
e 146 170
e 146 249
e 147 230
e 147 262
e 147 298
e 148 155
e 148 156
e 148 247
e 148 281
e 149 218
e 149 298
e 150 170
e 150 181
e 150 211
e 150 248
e 150 258
e 151 155
e 151 191
e 151 231
e 151 269
e 151 270
e 152 273
e 153 176
e 153 242
e 154 193
e 155 160
e 155 169
e 155 183
e 155 271
e 155 287
e 156 164
e 156 240
e 157 247
e 157 293
e 157 298
e 158 168
e 158 182
e 158 240
e 158 297
e 159 199
e 159 249
e 160 295
e 161 199
e 161 219
e 162 233
e 162 246
e 162 265
e 162 272
e 163 166
e 163 169
e 163 226
e 163 258
e 164 175
e 164 238
e 164 300
e 165 237
e 166 297
e 167 299
e 168 213
e 168 281
e 169 212
e 170 186
e 170 193
e 170 246
e 171 214
e 171 256
e 172 287
e 172 291
e 172 294
e 173 193
e 173 227
e 174 204
e 174 276
e 174 285
e 176 184
e 176 246
e 176 282
e 176 290
e 177 181
e 177 257
e 178 208
e 178 271
e 180 221
e 180 265
e 181 298
e 182 228
e 183 199
e 183 256
e 183 282
e 184 198
e 184 261
e 185 283
e 185 284
e 185 285
e 186 206
e 186 293
e 187 300
e 188 267
e 188 275
e 189 220
e 189 271
e 191 200
e 191 205
e 191 266
e 191 289
e 192 287
e 192 292
e 193 226
e 193 251
e 194 226
e 194 244
e 195 217
e 196 251
e 196 264
e 196 287
e 197 219
e 198 199
e 198 247
e 199 253
e 199 283
e 200 210
e 200 212
e 200 240
e 200 250
e 200 287
e 200 299
e 201 222
e 201 223
e 201 290
e 201 297
e 202 214
e 202 217
e 202 236
e 203 210
e 203 241
e 204 211
e 204 259
e 204 264
e 206 238
e 206 252
e 207 210
e 207 215
e 207 230
e 207 267
e 207 274
e 207 290
e 208 251
e 208 284
e 209 236
e 209 272
e 209 286
e 210 216
e 211 218
e 211 233
e 211 234
e 212 218
e 212 244
e 212 282
e 213 263
e 213 280
e 213 294
e 214 239
e 214 262
e 216 269
e 216 286
e 217 240
e 220 261
e 220 299
e 221 282
e 223 231
e 223 247
e 223 280
e 224 233
e 224 245
e 224 295
e 225 258
e 225 293
e 226 238
e 226 249
e 227 251
e 229 231
e 231 257
e 232 244
e 232 280
e 232 281
e 233 235
e 235 268
e 235 277
e 236 253
e 238 289
e 240 263
e 241 300
e 242 295
e 243 254
e 243 256
e 243 280
e 243 289
e 246 290
e 247 258
e 247 266
e 249 281
e 250 268
e 250 274
e 251 284
e 252 264
e 252 266
e 252 269
e 252 272
e 254 290
e 255 296
e 257 277
e 258 298
e 259 287
e 260 284
e 261 264
e 261 283
e 264 267
e 267 278
e 267 300
e 269 277
e 270 272
e 276 295
e 277 279
e 286 288
e 294 298
e 294 299
e 295 296
